163
1000
109
10
457
275
13
132
616
198
166
197
360
744
72
488
197
45
7
44
16
577
131
290
184
61
213
58
345
117
176
627
270
63
297
679
387
116
11
408
63
161
282
90
476
487
25
31
416
468
374
200
265
237
740
650
358
379
201
313
49
511
18
62
109
98
283
68
189
77
354
116
197
222
498
471
35
571
655
58
513
458
79
88
140
392
522
294
153
202
669
533
278
286
686
439
352
99
455
1
484
428
489
467
66
364
345
67
63
270
496
494
274
639
140
236
228
204
558
53
730
126
141
687
388
183
565
282
395
190
30
361
72
18
327
172
90
166
679
378
57
353
151
43
75
330
504
558
98
54
268
136
481
244
703
113
61
117
280
258
180
268
269
382
20
